letting numberLocations be  31
letting costs be function (
(0,0) --> 0,
(0,1) --> 35,
(0,2) --> 78,
(0,3) --> 76,
(0,4) --> 98,
(0,5) --> 55,
(0,6) --> 52,
(0,7) --> 37,
(0,8) --> 86,
(0,9) --> 88,
(0,10) --> 79,
(0,11) --> 101,
(0,12) --> 29,
(0,13) --> 51,
(0,14) --> 27,
(0,15) --> 82,
(0,16) --> 26,
(0,17) --> 75,
(0,18) --> 77,
(0,19) --> 74,
(0,20) --> 36,
(0,21) --> 64,
(0,22) --> 84,
(0,23) --> 78,
(0,24) --> 25,
(0,25) --> 76,
(0,26) --> 21,
(0,27) --> 26,
(0,28) --> 85,
(0,29) --> 62,
(0,30) --> 16,
(0,31) --> 73,
(1,0) --> 35,
(1,1) --> 0,
(1,2) --> 60,
(1,3) --> 59,
(1,4) --> 91,
(1,5) --> 81,
(1,6) --> 40,
(1,7) --> 13,
(1,8) --> 84,
(1,9) --> 94,
(1,10) --> 100,
(1,11) --> 97,
(1,12) --> 8,
(1,13) --> 22,
(1,14) --> 38,
(1,15) --> 97,
(1,16) --> 11,
(1,17) --> 42,
(1,18) --> 78,
(1,19) --> 41,
(1,20) --> 67,
(1,21) --> 30,
(1,22) --> 91,
(1,23) --> 64,
(1,24) --> 39,
(1,25) --> 102,
(1,26) --> 19,
(1,27) --> 46,
(1,28) --> 79,
(1,29) --> 80,
(1,30) --> 19,
(1,31) --> 39,
(2,0) --> 78,
(2,1) --> 60,
(2,2) --> 0,
(2,3) --> 3,
(2,4) --> 37,
(2,5) --> 87,
(2,6) --> 26,
(2,7) --> 48,
(2,8) --> 41,
(2,9) --> 59,
(2,10) --> 90,
(2,11) --> 45,
(2,12) --> 67,
(2,13) --> 39,
(2,14) --> 55,
(2,15) --> 77,
(2,16) --> 60,
(2,17) --> 41,
(2,18) --> 41,
(2,19) --> 43,
(2,20) --> 88,
(2,21) --> 49,
(2,22) --> 58,
(2,23) --> 9,
(2,24) --> 58,
(2,25) --> 101,
(2,26) --> 58,
(2,27) --> 64,
(2,28) --> 29,
(2,29) --> 72,
(2,30) --> 65,
(2,31) --> 48,
(3,0) --> 76,
(3,1) --> 59,
(3,2) --> 3,
(3,3) --> 0,
(3,4) --> 36,
(3,5) --> 83,
(3,6) --> 24,
(3,7) --> 47,
(3,8) --> 38,
(3,9) --> 56,
(3,10) --> 87,
(3,11) --> 44,
(3,12) --> 66,
(3,13) --> 39,
(3,14) --> 52,
(3,15) --> 75,
(3,16) --> 58,
(3,17) --> 42,
(3,18) --> 38,
(3,19) --> 44,
(3,20) --> 85,
(3,21) --> 49,
(3,22) --> 56,
(3,23) --> 7,
(3,24) --> 55,
(3,25) --> 98,
(3,26) --> 56,
(3,27) --> 62,
(3,28) --> 27,
(3,29) --> 68,
(3,30) --> 63,
(3,31) --> 49,
(4,0) --> 98,
(4,1) --> 91,
(4,2) --> 37,
(4,3) --> 36,
(4,4) --> 0,
(4,5) --> 84,
(4,6) --> 51,
(4,7) --> 78,
(4,8) --> 17,
(4,9) --> 34,
(4,10) --> 76,
(4,11) --> 9,
(4,12) --> 96,
(4,13) --> 73,
(4,14) --> 71,
(4,15) --> 59,
(4,16) --> 87,
(4,17) --> 78,
(4,18) --> 26,
(4,19) --> 80,
(4,20) --> 94,
(4,21) --> 85,
(4,22) --> 36,
(4,23) --> 29,
(4,24) --> 73,
(4,25) --> 90,
(4,26) --> 82,
(4,27) --> 76,
(4,28) --> 13,
(4,29) --> 63,
(4,30) --> 89,
(4,31) --> 85,
(5,0) --> 55,
(5,1) --> 81,
(5,2) --> 87,
(5,3) --> 83,
(5,4) --> 84,
(5,5) --> 0,
(5,6) --> 66,
(5,7) --> 74,
(5,8) --> 67,
(5,9) --> 57,
(5,10) --> 27,
(5,11) --> 83,
(5,12) --> 78,
(5,13) --> 84,
(5,14) --> 44,
(5,15) --> 37,
(5,16) --> 70,
(5,17) --> 107,
(5,18) --> 58,
(5,19) --> 107,
(5,20) --> 21,
(5,21) --> 102,
(5,22) --> 53,
(5,23) --> 81,
(5,24) --> 42,
(5,25) --> 22,
(5,26) --> 61,
(5,27) --> 34,
(5,28) --> 74,
(5,29) --> 21,
(5,30) --> 63,
(5,31) --> 109,
(6,0) --> 52,
(6,1) --> 40,
(6,2) --> 26,
(6,3) --> 24,
(6,4) --> 51,
(6,5) --> 66,
(6,6) --> 0,
(6,7) --> 28,
(6,8) --> 44,
(6,9) --> 57,
(6,10) --> 76,
(6,11) --> 57,
(6,12) --> 46,
(6,13) --> 26,
(6,14) --> 29,
(6,15) --> 67,
(6,16) --> 37,
(6,17) --> 43,
(6,18) --> 39,
(6,19) --> 44,
(6,20) --> 64,
(6,21) --> 43,
(6,22) --> 54,
(6,23) --> 26,
(6,24) --> 32,
(6,25) --> 83,
(6,26) --> 33,
(6,27) --> 39,
(6,28) --> 38,
(6,29) --> 55,
(6,30) --> 40,
(6,31) --> 47,
(7,0) --> 37,
(7,1) --> 13,
(7,2) --> 48,
(7,3) --> 47,
(7,4) --> 78,
(7,5) --> 74,
(7,6) --> 28,
(7,7) --> 0,
(7,8) --> 72,
(7,9) --> 82,
(7,10) --> 92,
(7,11) --> 84,
(7,12) --> 19,
(7,13) --> 14,
(7,14) --> 30,
(7,15) --> 87,
(7,16) --> 13,
(7,17) --> 38,
(7,18) --> 65,
(7,19) --> 37,
(7,20) --> 64,
(7,21) --> 29,
(7,22) --> 79,
(7,23) --> 52,
(7,24) --> 33,
(7,25) --> 95,
(7,26) --> 16,
(7,27) --> 40,
(7,28) --> 66,
(7,29) --> 71,
(7,30) --> 21,
(7,31) --> 37,
(8,0) --> 86,
(8,1) --> 84,
(8,2) --> 41,
(8,3) --> 38,
(8,4) --> 17,
(8,5) --> 67,
(8,6) --> 44,
(8,7) --> 72,
(8,8) --> 0,
(8,9) --> 19,
(8,10) --> 59,
(8,11) --> 17,
(8,12) --> 89,
(8,13) --> 70,
(8,14) --> 59,
(8,15) --> 43,
(8,16) --> 79,
(8,17) --> 80,
(8,18) --> 9,
(8,19) --> 82,
(8,20) --> 78,
(8,21) --> 85,
(8,22) --> 20,
(8,23) --> 32,
(8,24) --> 60,
(8,25) --> 73,
(8,26) --> 73,
(8,27) --> 62,
(8,28) --> 13,
(8,29) --> 46,
(8,30) --> 80,
(8,31) --> 86,
(9,0) --> 88,
(9,1) --> 94,
(9,2) --> 59,
(9,3) --> 56,
(9,4) --> 34,
(9,5) --> 57,
(9,6) --> 57,
(9,7) --> 82,
(9,8) --> 19,
(9,9) --> 0,
(9,10) --> 43,
(9,11) --> 29,
(9,12) --> 97,
(9,13) --> 83,
(9,14) --> 62,
(9,15) --> 26,
(9,16) --> 87,
(9,17) --> 96,
(9,18) --> 18,
(9,19) --> 98,
(9,20) --> 72,
(9,21) --> 99,
(9,22) --> 4,
(9,23) --> 50,
(9,24) --> 63,
(9,25) --> 58,
(9,26) --> 80,
(9,27) --> 63,
(9,28) --> 32,
(9,29) --> 36,
(9,30) --> 86,
(9,31) --> 102,
(10,0) --> 79,
(10,1) --> 100,
(10,2) --> 90,
(10,3) --> 87,
(10,4) --> 76,
(10,5) --> 27,
(10,6) --> 76,
(10,7) --> 92,
(10,8) --> 59,
(10,9) --> 43,
(10,10) --> 0,
(10,11) --> 72,
(10,12) --> 100,
(10,13) --> 99,
(10,14) --> 62,
(10,15) --> 17,
(10,16) --> 90,
(10,17) --> 119,
(10,18) --> 52,
(10,19) --> 120,
(10,20) --> 48,
(10,21) --> 117,
(10,22) --> 40,
(10,23) --> 83,
(10,24) --> 61,
(10,25) --> 16,
(10,26) --> 82,
(10,27) --> 56,
(10,28) --> 70,
(10,29) --> 21,
(10,30) --> 85,
(10,31) --> 122,
(11,0) --> 101,
(11,1) --> 97,
(11,2) --> 45,
(11,3) --> 44,
(11,4) --> 9,
(11,5) --> 83,
(11,6) --> 57,
(11,7) --> 84,
(11,8) --> 17,
(11,9) --> 29,
(11,10) --> 72,
(11,11) --> 0,
(11,12) --> 102,
(11,13) --> 80,
(11,14) --> 74,
(11,15) --> 55,
(11,16) --> 93,
(11,17) --> 86,
(11,18) --> 26,
(11,19) --> 88,
(11,20) --> 94,
(11,21) --> 93,
(11,22) --> 32,
(11,23) --> 37,
(11,24) --> 76,
(11,25) --> 87,
(11,26) --> 87,
(11,27) --> 79,
(11,28) --> 19,
(11,29) --> 62,
(11,30) --> 94,
(11,31) --> 93,
(12,0) --> 29,
(12,1) --> 8,
(12,2) --> 67,
(12,3) --> 66,
(12,4) --> 96,
(12,5) --> 78,
(12,6) --> 46,
(12,7) --> 19,
(12,8) --> 89,
(12,9) --> 97,
(12,10) --> 100,
(12,11) --> 102,
(12,12) --> 0,
(12,13) --> 30,
(12,14) --> 38,
(12,15) --> 98,
(12,16) --> 10,
(12,17) --> 50,
(12,18) --> 81,
(12,19) --> 49,
(12,20) --> 63,
(12,21) --> 38,
(12,22) --> 94,
(12,23) --> 71,
(12,24) --> 38,
(12,25) --> 100,
(12,26) --> 18,
(12,27) --> 44,
(12,28) --> 84,
(12,29) --> 80,
(12,30) --> 15,
(12,31) --> 47,
(13,0) --> 51,
(13,1) --> 22,
(13,2) --> 39,
(13,3) --> 39,
(13,4) --> 73,
(13,5) --> 84,
(13,6) --> 26,
(13,7) --> 14,
(13,8) --> 70,
(13,9) --> 83,
(13,10) --> 99,
(13,11) --> 80,
(13,12) --> 30,
(13,13) --> 0,
(13,14) --> 41,
(13,15) --> 92,
(13,16) --> 26,
(13,17) --> 24,
(13,18) --> 65,
(13,19) --> 24,
(13,20) --> 76,
(13,21) --> 18,
(13,22) --> 81,
(13,23) --> 45,
(13,24) --> 44,
(13,25) --> 104,
(13,26) --> 30,
(13,27) --> 52,
(13,28) --> 62,
(13,29) --> 78,
(13,30) --> 35,
(13,31) --> 24,
(14,0) --> 27,
(14,1) --> 38,
(14,2) --> 55,
(14,3) --> 52,
(14,4) --> 71,
(14,5) --> 44,
(14,6) --> 29,
(14,7) --> 30,
(14,8) --> 59,
(14,9) --> 62,
(14,10) --> 62,
(14,11) --> 74,
(14,12) --> 38,
(14,13) --> 41,
(14,14) --> 0,
(14,15) --> 60,
(14,16) --> 28,
(14,17) --> 64,
(14,18) --> 50,
(14,19) --> 64,
(14,20) --> 36,
(14,21) --> 58,
(14,22) --> 59,
(14,23) --> 53,
(14,24) --> 3,
(14,25) --> 64,
(14,26) --> 19,
(14,27) --> 11,
(14,28) --> 58,
(14,29) --> 42,
(14,30) --> 24,
(14,31) --> 65,
(15,0) --> 82,
(15,1) --> 97,
(15,2) --> 77,
(15,3) --> 75,
(15,4) --> 59,
(15,5) --> 37,
(15,6) --> 67,
(15,7) --> 87,
(15,8) --> 43,
(15,9) --> 26,
(15,10) --> 17,
(15,11) --> 55,
(15,12) --> 98,
(15,13) --> 92,
(15,14) --> 60,
(15,15) --> 0,
(15,16) --> 88,
(15,17) --> 110,
(15,18) --> 38,
(15,19) --> 111,
(15,20) --> 56,
(15,21) --> 110,
(15,22) --> 23,
(15,23) --> 69,
(15,24) --> 60,
(15,25) --> 33,
(15,26) --> 80,
(15,27) --> 56,
(15,28) --> 55,
(15,29) --> 20,
(15,30) --> 84,
(15,31) --> 114,
(16,0) --> 26,
(16,1) --> 11,
(16,2) --> 60,
(16,3) --> 58,
(16,4) --> 87,
(16,5) --> 70,
(16,6) --> 37,
(16,7) --> 13,
(16,8) --> 79,
(16,9) --> 87,
(16,10) --> 90,
(16,11) --> 93,
(16,12) --> 10,
(16,13) --> 26,
(16,14) --> 28,
(16,15) --> 88,
(16,16) --> 0,
(16,17) --> 49,
(16,18) --> 72,
(16,19) --> 48,
(16,20) --> 57,
(16,21) --> 38,
(16,22) --> 83,
(16,23) --> 62,
(16,24) --> 29,
(16,25) --> 91,
(16,26) --> 9,
(16,27) --> 36,
(16,28) --> 74,
(16,29) --> 71,
(16,30) --> 9,
(16,31) --> 47,
(17,0) --> 75,
(17,1) --> 42,
(17,2) --> 41,
(17,3) --> 42,
(17,4) --> 78,
(17,5) --> 107,
(17,6) --> 43,
(17,7) --> 38,
(17,8) --> 80,
(17,9) --> 96,
(17,10) --> 119,
(17,11) --> 86,
(17,12) --> 50,
(17,13) --> 24,
(17,14) --> 64,
(17,15) --> 110,
(17,16) --> 49,
(17,17) --> 0,
(17,18) --> 78,
(17,19) --> 2,
(17,20) --> 100,
(17,21) --> 14,
(17,22) --> 95,
(17,23) --> 49,
(17,24) --> 67,
(17,25) --> 125,
(17,26) --> 54,
(17,27) --> 75,
(17,28) --> 69,
(17,29) --> 98,
(17,30) --> 58,
(17,31) --> 8,
(18,0) --> 77,
(18,1) --> 78,
(18,2) --> 41,
(18,3) --> 38,
(18,4) --> 26,
(18,5) --> 58,
(18,6) --> 39,
(18,7) --> 65,
(18,8) --> 9,
(18,9) --> 18,
(18,10) --> 52,
(18,11) --> 26,
(18,12) --> 81,
(18,13) --> 65,
(18,14) --> 50,
(18,15) --> 38,
(18,16) --> 72,
(18,17) --> 78,
(18,18) --> 0,
(18,19) --> 79,
(18,20) --> 68,
(18,21) --> 81,
(18,22) --> 17,
(18,23) --> 33,
(18,24) --> 52,
(18,25) --> 66,
(18,26) --> 65,
(18,27) --> 53,
(18,28) --> 17,
(18,29) --> 38,
(18,30) --> 72,
(18,31) --> 83,
(19,0) --> 74,
(19,1) --> 41,
(19,2) --> 43,
(19,3) --> 44,
(19,4) --> 80,
(19,5) --> 107,
(19,6) --> 44,
(19,7) --> 37,
(19,8) --> 82,
(19,9) --> 98,
(19,10) --> 120,
(19,11) --> 88,
(19,12) --> 49,
(19,13) --> 24,
(19,14) --> 64,
(19,15) --> 111,
(19,16) --> 48,
(19,17) --> 2,
(19,18) --> 79,
(19,19) --> 0,
(19,20) --> 100,
(19,21) --> 12,
(19,22) --> 96,
(19,23) --> 51,
(19,24) --> 67,
(19,25) --> 126,
(19,26) --> 54,
(19,27) --> 75,
(19,28) --> 71,
(19,29) --> 99,
(19,30) --> 58,
(19,31) --> 5,
(20,0) --> 36,
(20,1) --> 67,
(20,2) --> 88,
(20,3) --> 85,
(20,4) --> 94,
(20,5) --> 21,
(20,6) --> 64,
(20,7) --> 64,
(20,8) --> 78,
(20,9) --> 72,
(20,10) --> 48,
(20,11) --> 94,
(20,12) --> 63,
(20,13) --> 76,
(20,14) --> 36,
(20,15) --> 56,
(20,16) --> 57,
(20,17) --> 100,
(20,18) --> 68,
(20,19) --> 100,
(20,20) --> 0,
(20,21) --> 92,
(20,22) --> 68,
(20,23) --> 84,
(20,24) --> 33,
(20,25) --> 41,
(20,26) --> 48,
(20,27) --> 25,
(20,28) --> 83,
(20,29) --> 38,
(20,30) --> 48,
(20,31) --> 100,
(21,0) --> 64,
(21,1) --> 30,
(21,2) --> 49,
(21,3) --> 49,
(21,4) --> 85,
(21,5) --> 102,
(21,6) --> 43,
(21,7) --> 29,
(21,8) --> 85,
(21,9) --> 99,
(21,10) --> 117,
(21,11) --> 93,
(21,12) --> 38,
(21,13) --> 18,
(21,14) --> 58,
(21,15) --> 110,
(21,16) --> 38,
(21,17) --> 14,
(21,18) --> 81,
(21,19) --> 12,
(21,20) --> 92,
(21,21) --> 0,
(21,22) --> 97,
(21,23) --> 56,
(21,24) --> 61,
(21,25) --> 122,
(21,26) --> 45,
(21,27) --> 69,
(21,28) --> 75,
(21,29) --> 96,
(21,30) --> 48,
(21,31) --> 9,
(22,0) --> 84,
(22,1) --> 91,
(22,2) --> 58,
(22,3) --> 56,
(22,4) --> 36,
(22,5) --> 53,
(22,6) --> 54,
(22,7) --> 79,
(22,8) --> 20,
(22,9) --> 4,
(22,10) --> 40,
(22,11) --> 32,
(22,12) --> 94,
(22,13) --> 81,
(22,14) --> 59,
(22,15) --> 23,
(22,16) --> 83,
(22,17) --> 95,
(22,18) --> 17,
(22,19) --> 96,
(22,20) --> 68,
(22,21) --> 97,
(22,22) --> 0,
(22,23) --> 50,
(22,24) --> 59,
(22,25) --> 55,
(22,26) --> 76,
(22,27) --> 59,
(22,28) --> 32,
(22,29) --> 32,
(22,30) --> 82,
(22,31) --> 100,
(23,0) --> 78,
(23,1) --> 64,
(23,2) --> 9,
(23,3) --> 7,
(23,4) --> 29,
(23,5) --> 81,
(23,6) --> 26,
(23,7) --> 52,
(23,8) --> 32,
(23,9) --> 50,
(23,10) --> 83,
(23,11) --> 37,
(23,12) --> 71,
(23,13) --> 45,
(23,14) --> 53,
(23,15) --> 69,
(23,16) --> 62,
(23,17) --> 49,
(23,18) --> 33,
(23,19) --> 51,
(23,20) --> 84,
(23,21) --> 56,
(23,22) --> 50,
(23,23) --> 0,
(23,24) --> 56,
(23,25) --> 94,
(23,26) --> 60,
(23,27) --> 62,
(23,28) --> 20,
(23,29) --> 65,
(23,30) --> 67,
(23,31) --> 56,
(24,0) --> 25,
(24,1) --> 39,
(24,2) --> 58,
(24,3) --> 55,
(24,4) --> 73,
(24,5) --> 42,
(24,6) --> 32,
(24,7) --> 33,
(24,8) --> 60,
(24,9) --> 63,
(24,10) --> 61,
(24,11) --> 76,
(24,12) --> 38,
(24,13) --> 44,
(24,14) --> 3,
(24,15) --> 60,
(24,16) --> 29,
(24,17) --> 67,
(24,18) --> 52,
(24,19) --> 67,
(24,20) --> 33,
(24,21) --> 61,
(24,22) --> 59,
(24,23) --> 56,
(24,24) --> 0,
(24,25) --> 63,
(24,26) --> 20,
(24,27) --> 8,
(24,28) --> 60,
(24,29) --> 42,
(24,30) --> 24,
(24,31) --> 68,
(25,0) --> 76,
(25,1) --> 102,
(25,2) --> 101,
(25,3) --> 98,
(25,4) --> 90,
(25,5) --> 22,
(25,6) --> 83,
(25,7) --> 95,
(25,8) --> 73,
(25,9) --> 58,
(25,10) --> 16,
(25,11) --> 87,
(25,12) --> 100,
(25,13) --> 104,
(25,14) --> 64,
(25,15) --> 33,
(25,16) --> 91,
(25,17) --> 125,
(25,18) --> 66,
(25,19) --> 126,
(25,20) --> 41,
(25,21) --> 122,
(25,22) --> 55,
(25,23) --> 94,
(25,24) --> 63,
(25,25) --> 0,
(25,26) --> 82,
(25,27) --> 56,
(25,28) --> 83,
(25,29) --> 29,
(25,30) --> 85,
(25,31) --> 128,
(26,0) --> 21,
(26,1) --> 19,
(26,2) --> 58,
(26,3) --> 56,
(26,4) --> 82,
(26,5) --> 61,
(26,6) --> 33,
(26,7) --> 16,
(26,8) --> 73,
(26,9) --> 80,
(26,10) --> 82,
(26,11) --> 87,
(26,12) --> 18,
(26,13) --> 30,
(26,14) --> 19,
(26,15) --> 80,
(26,16) --> 9,
(26,17) --> 54,
(26,18) --> 65,
(26,19) --> 54,
(26,20) --> 48,
(26,21) --> 45,
(26,22) --> 76,
(26,23) --> 60,
(26,24) --> 20,
(26,25) --> 82,
(26,26) --> 0,
(26,27) --> 27,
(26,28) --> 70,
(26,29) --> 62,
(26,30) --> 7,
(26,31) --> 53,
(27,0) --> 26,
(27,1) --> 46,
(27,2) --> 64,
(27,3) --> 62,
(27,4) --> 76,
(27,5) --> 34,
(27,6) --> 39,
(27,7) --> 40,
(27,8) --> 62,
(27,9) --> 63,
(27,10) --> 56,
(27,11) --> 79,
(27,12) --> 44,
(27,13) --> 52,
(27,14) --> 11,
(27,15) --> 56,
(27,16) --> 36,
(27,17) --> 75,
(27,18) --> 53,
(27,19) --> 75,
(27,20) --> 25,
(27,21) --> 69,
(27,22) --> 59,
(27,23) --> 62,
(27,24) --> 8,
(27,25) --> 56,
(27,26) --> 27,
(27,27) --> 0,
(27,28) --> 64,
(27,29) --> 37,
(27,30) --> 29,
(27,31) --> 76,
(28,0) --> 85,
(28,1) --> 79,
(28,2) --> 29,
(28,3) --> 27,
(28,4) --> 13,
(28,5) --> 74,
(28,6) --> 38,
(28,7) --> 66,
(28,8) --> 13,
(28,9) --> 32,
(28,10) --> 70,
(28,11) --> 19,
(28,12) --> 84,
(28,13) --> 62,
(28,14) --> 58,
(28,15) --> 55,
(28,16) --> 74,
(28,17) --> 69,
(28,18) --> 17,
(28,19) --> 71,
(28,20) --> 83,
(28,21) --> 75,
(28,22) --> 32,
(28,23) --> 20,
(28,24) --> 60,
(28,25) --> 83,
(28,26) --> 70,
(28,27) --> 64,
(28,28) --> 0,
(28,29) --> 55,
(28,30) --> 77,
(28,31) --> 76,
(29,0) --> 62,
(29,1) --> 80,
(29,2) --> 72,
(29,3) --> 68,
(29,4) --> 63,
(29,5) --> 21,
(29,6) --> 55,
(29,7) --> 71,
(29,8) --> 46,
(29,9) --> 36,
(29,10) --> 21,
(29,11) --> 62,
(29,12) --> 80,
(29,13) --> 78,
(29,14) --> 42,
(29,15) --> 20,
(29,16) --> 71,
(29,17) --> 98,
(29,18) --> 38,
(29,19) --> 99,
(29,20) --> 38,
(29,21) --> 96,
(29,22) --> 32,
(29,23) --> 65,
(29,24) --> 42,
(29,25) --> 29,
(29,26) --> 62,
(29,27) --> 37,
(29,28) --> 55,
(29,29) --> 0,
(29,30) --> 66,
(29,31) --> 102,
(30,0) --> 16,
(30,1) --> 19,
(30,2) --> 65,
(30,3) --> 63,
(30,4) --> 89,
(30,5) --> 63,
(30,6) --> 40,
(30,7) --> 21,
(30,8) --> 80,
(30,9) --> 86,
(30,10) --> 85,
(30,11) --> 94,
(30,12) --> 15,
(30,13) --> 35,
(30,14) --> 24,
(30,15) --> 84,
(30,16) --> 9,
(30,17) --> 58,
(30,18) --> 72,
(30,19) --> 58,
(30,20) --> 48,
(30,21) --> 48,
(30,22) --> 82,
(30,23) --> 67,
(30,24) --> 24,
(30,25) --> 85,
(30,26) --> 7,
(30,27) --> 29,
(30,28) --> 77,
(30,29) --> 66,
(30,30) --> 0,
(30,31) --> 57,
(31,0) --> 73,
(31,1) --> 39,
(31,2) --> 48,
(31,3) --> 49,
(31,4) --> 85,
(31,5) --> 109,
(31,6) --> 47,
(31,7) --> 37,
(31,8) --> 86,
(31,9) --> 102,
(31,10) --> 122,
(31,11) --> 93,
(31,12) --> 47,
(31,13) --> 24,
(31,14) --> 65,
(31,15) --> 114,
(31,16) --> 47,
(31,17) --> 8,
(31,18) --> 83,
(31,19) --> 5,
(31,20) --> 100,
(31,21) --> 9,
(31,22) --> 100,
(31,23) --> 56,
(31,24) --> 68,
(31,25) --> 128,
(31,26) --> 53,
(31,27) --> 76,
(31,28) --> 76,
(31,29) --> 102,
(31,30) --> 57,
(31,31) --> 0)
letting orderWeights be function (
1 --> 19
,
2 --> 21
,
3 --> 6
,
4 --> 19
,
5 --> 7
,
6 --> 12
,
7 --> 16
,
8 --> 6
,
9 --> 16
,
10 --> 8
,
11 --> 14
,
12 --> 21
,
13 --> 16
,
14 --> 3
,
15 --> 22
,
16 --> 18
,
17 --> 19
,
18 --> 1
,
19 --> 24
,
20 --> 8
,
21 --> 12
,
22 --> 4
,
23 --> 8
,
24 --> 24
,
25 --> 24
,
26 --> 2
,
27 --> 20
,
28 --> 15
,
29 --> 2
,
30 --> 14
,
31 --> 9
)
letting vehicleCapacity be 100
